(set-logic QF_S)
(declare-fun var0 () String)
(declare-fun var1 () String)
(declare-fun var2 () String)
(declare-fun var3 () String)
(declare-fun var4 () String)
(declare-fun var5 () String)
(declare-fun var6 () String)
(declare-fun var7 () String)
(declare-fun var8 () String)
(declare-fun var9 () String)
(declare-fun var10 () String)
(declare-fun var11 () String)
(declare-fun var12 () String)
(declare-fun var13 () String)
(declare-fun var14 () String)
(declare-fun var15 () String)
(declare-fun var16 () String)
(declare-fun var17 () String)
(declare-fun var18 () String)
(declare-fun var19 () String)
(declare-fun var20 () String)
(declare-fun var21 () String)
(declare-fun var22 () String)
(declare-fun var23 () String)
(declare-fun var24 () String)
(declare-fun var25 () String)
(declare-fun var26 () String)
(declare-fun var27 () String)
(declare-fun var28 () String)
(declare-fun var29 () String)
(declare-fun var30 () String)
(declare-fun var31 () String)
(declare-fun var32 () String)
(declare-fun var33 () String)
(declare-fun var34 () String)
(declare-fun var35 () String)
(declare-fun var36 () String)
(declare-fun var37 () String)
(declare-fun var38 () String)
(declare-fun var39 () String)
(declare-fun var40 () String)
(declare-fun var41 () String)
(declare-fun var42 () String)
(declare-fun var43 () String)
(declare-fun var44 () String)
(declare-fun var45 () String)
(declare-fun var46 () String)
(declare-fun var47 () String)
(declare-fun var48 () String)
(declare-fun var49 () String)
(declare-fun var50 () String)
(declare-fun var51 () String)
(declare-fun var52 () String)
(declare-fun var53 () String)
(declare-fun var54 () String)
(declare-fun var55 () String)
(declare-fun var56 () String)
(declare-fun var57 () String)
(declare-fun var58 () String)
(declare-fun var59 () String)
(declare-fun var60 () String)
(assert (= var0 (str.++ var1 var2)))
(assert (= var2 (str.++ var3 var4)))
(assert (= var4 (str.++ var5 var6)))
(assert (= var6 (str.++ var7 var8)))
(assert (= var8 (str.++ var9 var10)))
(assert (= var10 (str.++ var11 var12)))
(assert (= var12 (str.++ var13 var14)))
(assert (= var14 (str.++ var15 var16)))
(assert (= var16 (str.++ var17 var18)))
(assert (= var18 (str.++ var19 var20)))
(assert (= var20 (str.++ var21 var22)))
(assert (= var22 (str.++ var23 var24)))
(assert (= var24 (str.++ var25 var26)))
(assert (= var26 (str.++ var27 var28)))
(assert (= var28 (str.++ var29 var30)))
(assert (= var30 (str.++ var31 var32)))
(assert (= var32 (str.++ var33 var34)))
(assert (= var34 (str.++ var35 var36)))
(assert (= var36 (str.++ var37 var38)))
(assert (= var38 (str.++ var39 var40)))
(assert (= var40 (str.++ var41 var42)))
(assert (= var42 (str.++ var43 var44)))
(assert (= var44 (str.++ var45 var46)))
(assert (= var46 (str.++ var47 var48)))
(assert (= var48 (str.++ var49 var50)))
(assert (= var50 (str.++ var51 var52)))
(assert (= var52 (str.++ var53 var54)))
(assert (= var54 (str.++ var55 var56)))
(assert (= var56 (str.++ var57 var58)))
(assert (= var58 (str.++ var59 var60)))
(assert (= var0 "solution"))
(assert (= "$" (str.at var44 195)))
(assert (= ")" (str.at var2 588)))
(assert (= "1" (str.at var51 318)))
(assert (= "9" (str.at var15 317)))
(assert (= "g" (str.at var43 349)))
(assert (= "E" (str.at var17 76)))
(assert (= "g" (str.at var47 544)))
(assert (= "|" (str.at var47 343)))
(assert (= "f" (str.at var23 566)))
(assert (= "G" (str.at var32 62)))
(assert (= "T" (str.at var8 173)))
(assert (= "4" (str.at var57 191)))
(assert (= "x" (str.at var43 131)))
(assert (= "N" (str.at var8 900)))
(assert (= "W" (str.at var17 778)))
(assert (= "," (str.at var17 630)))
(assert (= "c" (str.at var29 680)))
(assert (= "F" (str.at var10 483)))
(assert (= "C" (str.at var40 707)))
(assert (= "N" (str.at var19 815)))
(assert (= "_" (str.at var14 250)))
(assert (= "g" (str.at var18 49)))
(assert (= "$" (str.at var9 299)))
(assert (= "x" (str.at var48 323)))
(assert (= "g" (str.at var26 301)))
(assert (= "*" (str.at var20 0)))
(assert (= "8" (str.at var34 717)))
(assert (= "T" (str.at var18 449)))
(assert (= "j" (str.at var15 161)))
(assert (= "g" (str.at var30 630)))
(assert (= "S" (str.at var10 602)))
(assert (= "x" (str.at var19 988)))
(assert (= "A" (str.at var15 604)))
(assert (= "X" (str.at var22 746)))
(assert (= "D" (str.at var53 385)))
(assert (= """" (str.at var50 884)))
(assert (= "|" (str.at var25 431)))
(assert (= "@" (str.at var4 860)))
(assert (= "g" (str.at var9 690)))
(assert (= "," (str.at var44 670)))
(assert (= "6" (str.at var3 47)))
(assert (= "a" (str.at var9 897)))
(assert (= "L" (str.at var43 994)))
(assert (= "Z" (str.at var45 601)))
(assert (= "I" (str.at var34 214)))
(assert (= "x" (str.at var37 747)))
(assert (= "6" (str.at var50 811)))
(assert (= "Y" (str.at var28 711)))
(assert (= "O" (str.at var59 928)))
(assert (= "W" (str.at var40 570)))
(assert (= "f" (str.at var27 709)))
(assert (= "I" (str.at var9 577)))
(assert (= "t" (str.at var28 22)))
(assert (= "%" (str.at var50 275)))
(assert (= "," (str.at var53 818)))
(assert (= "i" (str.at var2 34)))
(assert (= "Z" (str.at var1 2)))
(assert (= "<" (str.at var31 246)))
(assert (= "J" (str.at var44 672)))
(assert (= "q" (str.at var19 742)))
(assert (= "L" (str.at var25 863)))
(assert (= "K" (str.at var16 474)))
(assert (= "?" (str.at var50 432)))
(assert (= "4" (str.at var58 164)))
(assert (= "B" (str.at var56 123)))
(assert (= "x" (str.at var49 726)))
(assert (= "." (str.at var47 14)))
(assert (= ")" (str.at var6 722)))
(assert (= "D" (str.at var3 90)))
(assert (= "/" (str.at var13 480)))
(assert (= "6" (str.at var43 153)))
(assert (= "#" (str.at var48 473)))
(assert (= "~" (str.at var41 763)))
(assert (= "D" (str.at var18 914)))
(assert (= "!" (str.at var26 453)))
(assert (= "2" (str.at var34 762)))
(assert (= "," (str.at var3 57)))
(assert (= "x" (str.at var12 247)))
(assert (= "6" (str.at var3 176)))
(assert (= "W" (str.at var36 962)))
(assert (= "&" (str.at var23 112)))
(assert (= "D" (str.at var36 768)))
(assert (= "A" (str.at var38 783)))
(assert (= "]" (str.at var55 927)))
(assert (= "^" (str.at var46 87)))
(assert (= "[" (str.at var58 734)))
(assert (= "1" (str.at var29 443)))
(assert (= "j" (str.at var26 433)))
(assert (= "a" (str.at var54 860)))
(assert (= "M" (str.at var0 546)))
(assert (= "M" (str.at var12 411)))
(assert (= "p" (str.at var46 730)))
(assert (= "R" (str.at var45 317)))
(assert (= "B" (str.at var29 43)))
(assert (= "U" (str.at var0 407)))
(assert (= "}" (str.at var16 503)))
(assert (= "r" (str.at var53 360)))
(assert (= "." (str.at var36 556)))
(assert (= "^" (str.at var42 147)))
(assert (= "d" (str.at var10 447)))
(assert (= "B" (str.at var52 47)))
(assert (= "f" (str.at var12 982)))
(assert (= "Z" (str.at var15 961)))
(assert (= "|" (str.at var54 139)))
(assert (= "2" (str.at var34 176)))
(assert (= "D" (str.at var33 376)))
(assert (= "Z" (str.at var58 551)))
(assert (= "x" (str.at var37 260)))
(assert (= "_" (str.at var54 103)))
(assert (= "J" (str.at var36 660)))
(assert (= "l" (str.at var10 549)))
(assert (= "." (str.at var36 740)))
(assert (= "[" (str.at var59 417)))
(assert (= "," (str.at var34 738)))
(assert (= "~" (str.at var55 878)))
(assert (= "B" (str.at var31 485)))
(assert (= ";" (str.at var29 417)))
(assert (= "?" (str.at var10 370)))
(assert (= "Q" (str.at var49 951)))
(assert (= "x" (str.at var60 726)))
(assert (= "N" (str.at var0 159)))
(assert (= "9" (str.at var34 498)))
(assert (= "D" (str.at var48 665)))
(assert (= "e" (str.at var23 646)))
(assert (= "}" (str.at var39 300)))
(assert (= "&" (str.at var3 928)))
(assert (= "D" (str.at var35 738)))
(assert (= "M" (str.at var34 534)))
(assert (= "C" (str.at var50 780)))
(assert (= "4" (str.at var12 97)))
(assert (= "." (str.at var1 386)))
(assert (= "O" (str.at var32 938)))
(assert (= "9" (str.at var19 51)))
(assert (= "!" (str.at var41 155)))
(assert (= "+" (str.at var58 761)))
(assert (= "1" (str.at var23 957)))
(assert (= "i" (str.at var44 741)))
(assert (= "6" (str.at var13 527)))
(assert (= "[" (str.at var46 392)))
(assert (= "b" (str.at var7 996)))
(assert (= "=" (str.at var6 500)))
(assert (= ")" (str.at var7 870)))
(assert (= "$" (str.at var26 997)))
(assert (= "Z" (str.at var12 649)))
(assert (= "3" (str.at var8 835)))
(assert (= "j" (str.at var15 410)))
(assert (= "/" (str.at var6 466)))
(assert (= "s" (str.at var19 883)))
(assert (= "o" (str.at var33 81)))
(assert (= "x" (str.at var9 204)))
(assert (= "w" (str.at var26 953)))
(assert (= "N" (str.at var17 180)))
(assert (= "?" (str.at var0 518)))
(assert (= "}" (str.at var4 544)))
(assert (= "u" (str.at var34 934)))
(assert (= "K" (str.at var46 15)))
(assert (= "{" (str.at var54 971)))
(assert (= "g" (str.at var30 199)))
(assert (= "g" (str.at var11 603)))
(assert (= "_" (str.at var59 315)))
(assert (= """" (str.at var45 406)))
(assert (= "R" (str.at var2 265)))
(assert (= "~" (str.at var38 269)))
(assert (= "U" (str.at var33 116)))
(assert (= "t" (str.at var52 742)))
(assert (= "H" (str.at var49 603)))
(assert (= "\\" (str.at var29 558)))
(assert (= "|" (str.at var38 732)))
(assert (= "<" (str.at var30 514)))
(assert (= "n" (str.at var47 675)))
(assert (= "4" (str.at var37 481)))
(assert (= "|" (str.at var29 585)))
(assert (= "F" (str.at var23 30)))
(assert (= "f" (str.at var25 952)))
(assert (= "7" (str.at var35 322)))
(assert (= "N" (str.at var37 116)))
(assert (= "3" (str.at var24 887)))
(assert (= "P" (str.at var11 801)))
(assert (= "P" (str.at var37 33)))
(assert (= "B" (str.at var54 342)))
(assert (= "g" (str.at var57 682)))
(assert (= "z" (str.at var15 657)))
(assert (= "C" (str.at var58 954)))
(assert (= "9" (str.at var28 582)))
(assert (= "m" (str.at var42 740)))
(assert (= "~" (str.at var31 419)))
(assert (= "'" (str.at var7 812)))
(assert (= "V" (str.at var22 991)))
(assert (= "r" (str.at var24 574)))
(assert (= "k" (str.at var24 332)))
(assert (= "%" (str.at var20 824)))
(assert (= ">" (str.at var44 100)))
(assert (= "j" (str.at var59 120)))
(assert (= "^" (str.at var24 689)))
(assert (= "~" (str.at var32 302)))
(assert (= "f" (str.at var50 524)))
(assert (= "m" (str.at var24 909)))
(assert (= "c" (str.at var59 310)))
(assert (= "V" (str.at var20 632)))
(assert (= ":" (str.at var3 696)))
(assert (= "X" (str.at var9 602)))
(assert (= "+" (str.at var19 767)))
(assert (= "=" (str.at var2 773)))
(assert (= "k" (str.at var7 266)))
(assert (= "7" (str.at var39 967)))
(assert (= "t" (str.at var44 191)))
(assert (= "X" (str.at var55 34)))
(assert (= "[" (str.at var5 949)))
(assert (= "-" (str.at var30 347)))
(assert (= "o" (str.at var47 894)))
(assert (= "." (str.at var52 434)))
(assert (= "?" (str.at var41 231)))
(assert (= "~" (str.at var5 409)))
(assert (= "#" (str.at var46 555)))
(assert (= "X" (str.at var41 458)))
(assert (= "$" (str.at var8 206)))
(assert (= "r" (str.at var54 789)))
(assert (= ":" (str.at var12 765)))
(assert (= "B" (str.at var19 502)))
(assert (= "f" (str.at var13 973)))
(assert (= "I" (str.at var19 239)))
(assert (= "7" (str.at var52 712)))
(assert (= "*" (str.at var21 740)))
(assert (= "1" (str.at var3 786)))
(assert (= "A" (str.at var40 839)))
(assert (= ">" (str.at var34 872)))
(assert (= "D" (str.at var41 706)))
(assert (= "H" (str.at var13 160)))
(assert (= "J" (str.at var14 879)))
(assert (= "p" (str.at var18 266)))
(assert (= "!" (str.at var59 593)))
(assert (= "E" (str.at var49 633)))
(assert (= "8" (str.at var38 859)))
(assert (= "7" (str.at var21 216)))
(assert (= "1" (str.at var33 449)))
(assert (= "i" (str.at var54 995)))
(assert (= "e" (str.at var42 556)))
(assert (= "I" (str.at var13 337)))
(assert (= "l" (str.at var24 39)))
(assert (= "y" (str.at var18 297)))
(assert (= "%" (str.at var32 968)))
(assert (= "s" (str.at var7 688)))
(assert (= "6" (str.at var2 254)))
(assert (= "$" (str.at var18 857)))
(assert (= "u" (str.at var34 241)))
(assert (= "L" (str.at var3 508)))
(assert (= "S" (str.at var59 465)))
(assert (= "R" (str.at var19 645)))
(assert (= "H" (str.at var1 156)))
(assert (= "9" (str.at var3 684)))
(assert (= "x" (str.at var23 90)))
(assert (= "X" (str.at var1 274)))
(assert (= "@" (str.at var46 683)))
(assert (= "E" (str.at var49 309)))
(assert (= ")" (str.at var6 303)))
(assert (= "N" (str.at var40 83)))
(assert (= "A" (str.at var12 300)))
(assert (= "5" (str.at var57 997)))
(assert (= ">" (str.at var36 336)))
(assert (= "#" (str.at var45 751)))
(assert (= "n" (str.at var30 273)))
(assert (= "g" (str.at var15 681)))
(assert (= "3" (str.at var23 317)))
(assert (= "*" (str.at var18 997)))
(assert (= "~" (str.at var1 927)))
(assert (= "," (str.at var38 28)))
(assert (= "." (str.at var12 515)))
(assert (= "=" (str.at var53 683)))
(assert (= "S" (str.at var47 332)))
(assert (= "/" (str.at var20 160)))
(assert (= "a" (str.at var50 754)))
(assert (= "}" (str.at var57 630)))
(assert (= "m" (str.at var54 493)))
(assert (= "^" (str.at var42 435)))
(assert (= "D" (str.at var35 259)))
(assert (= "{" (str.at var7 479)))
(assert (= "6" (str.at var42 423)))
(assert (= "<" (str.at var45 362)))
(assert (= "C" (str.at var26 493)))
(assert (= "8" (str.at var27 145)))
(assert (= "r" (str.at var16 459)))
(assert (= "\\" (str.at var47 464)))
(assert (= "|" (str.at var7 668)))
(assert (= "j" (str.at var0 581)))
(assert (= "+" (str.at var52 347)))
(assert (= "~" (str.at var23 223)))
(assert (= "|" (str.at var58 249)))
(assert (= "y" (str.at var52 104)))
(assert (= "P" (str.at var35 765)))
(assert (= "*" (str.at var39 337)))
(assert (= "k" (str.at var27 188)))
(assert (= "?" (str.at var27 942)))
(assert (= "E" (str.at var43 346)))
(assert (= "w" (str.at var51 746)))
(assert (= "D" (str.at var16 514)))
(assert (= "S" (str.at var28 945)))
(assert (= "s" (str.at var27 199)))
(assert (= "I" (str.at var59 831)))
(assert (= "L" (str.at var18 802)))
(assert (= "G" (str.at var21 767)))
(assert (= "E" (str.at var30 297)))
(assert (= "b" (str.at var52 207)))
(assert (= "~" (str.at var0 492)))
(assert (= "z" (str.at var56 304)))
(assert (= "k" (str.at var48 736)))
(assert (= "{" (str.at var22 481)))
(assert (= "`" (str.at var3 346)))
(assert (= "p" (str.at var1 828)))
(assert (= "0" (str.at var43 290)))
(assert (= "T" (str.at var1 756)))
(assert (= "E" (str.at var57 179)))
(assert (= "&" (str.at var30 690)))
(assert (= "Q" (str.at var25 56)))
(assert (= ">" (str.at var4 401)))
(assert (= "M" (str.at var47 426)))
(assert (= "*" (str.at var54 948)))
(assert (= "!" (str.at var8 58)))
(assert (= "6" (str.at var49 136)))
(assert (= "J" (str.at var36 324)))
(assert (= "x" (str.at var13 89)))
(assert (= "M" (str.at var0 398)))
(assert (= "b" (str.at var21 303)))
(assert (= "l" (str.at var55 915)))
(assert (= "I" (str.at var22 760)))
(assert (= "x" (str.at var57 116)))
(assert (= ":" (str.at var44 285)))
(assert (= "*" (str.at var43 39)))
(assert (= "Q" (str.at var60 682)))
(assert (= "h" (str.at var13 790)))
(assert (= ">" (str.at var60 788)))
(assert (= "Z" (str.at var24 174)))
(assert (= "0" (str.at var36 303)))
(assert (= "4" (str.at var52 835)))
(assert (= "=" (str.at var53 93)))
(assert (= "`" (str.at var45 240)))
(assert (= "7" (str.at var39 37)))
(assert (= "b" (str.at var4 378)))
(assert (= "r" (str.at var47 600)))
(assert (= "_" (str.at var5 133)))
(assert (= "q" (str.at var53 839)))
(assert (= "v" (str.at var38 847)))
(assert (= "+" (str.at var0 936)))
(assert (= "2" (str.at var25 360)))
(assert (= "U" (str.at var20 470)))
(assert (= "|" (str.at var21 651)))
(assert (= "#" (str.at var33 721)))
(assert (= "=" (str.at var59 596)))
(assert (= "t" (str.at var11 952)))
(assert (= "]" (str.at var44 290)))
(assert (= "@" (str.at var44 346)))
(assert (= "m" (str.at var23 276)))
(assert (= "\\" (str.at var8 449)))
(assert (= "(" (str.at var40 469)))
(assert (= "T" (str.at var32 517)))
(assert (= "_" (str.at var48 188)))
(assert (= "f" (str.at var58 853)))
(assert (= "s" (str.at var18 374)))
(assert (= "(" (str.at var27 297)))
(assert (= "}" (str.at var17 663)))
(assert (= "T" (str.at var12 679)))
(assert (= "O" (str.at var3 920)))
(assert (= "p" (str.at var43 630)))
(assert (= "2" (str.at var1 164)))
(assert (= "~" (str.at var60 175)))
(assert (= "I" (str.at var47 245)))
(assert (= "m" (str.at var48 977)))
(assert (= "V" (str.at var20 876)))
(assert (= "W" (str.at var33 603)))
(assert (= "c" (str.at var48 325)))
(assert (= "(" (str.at var53 909)))
(assert (= "D" (str.at var43 856)))
(assert (= "C" (str.at var26 547)))
(assert (= "1" (str.at var31 364)))
(assert (= "i" (str.at var35 456)))
(assert (= "7" (str.at var22 25)))
(assert (= "=" (str.at var52 918)))
(assert (= "!" (str.at var18 944)))
(assert (= "W" (str.at var15 118)))
(assert (= "v" (str.at var20 706)))
(assert (= "m" (str.at var12 371)))
(assert (= "z" (str.at var53 557)))
(assert (= "." (str.at var60 703)))
(assert (= "}" (str.at var20 775)))
(assert (= "u" (str.at var48 966)))
(assert (= "%" (str.at var35 751)))
(assert (= "j" (str.at var8 936)))
(assert (= "|" (str.at var20 173)))
(assert (= "&" (str.at var14 113)))
(assert (= "`" (str.at var1 523)))
(assert (= "L" (str.at var43 422)))
(assert (= "A" (str.at var42 506)))
(assert (= "|" (str.at var47 722)))
(assert (= "<" (str.at var16 661)))
(assert (= "s" (str.at var51 157)))
(assert (= "Q" (str.at var5 154)))
(assert (= ">" (str.at var40 871)))
(assert (= "P" (str.at var25 383)))
(assert (= "'" (str.at var24 697)))
(assert (= "F" (str.at var37 797)))
(assert (= "h" (str.at var19 319)))
(assert (= "g" (str.at var1 747)))
(assert (= "5" (str.at var6 404)))
(assert (= "t" (str.at var29 882)))
(assert (= "X" (str.at var47 24)))
(assert (= "w" (str.at var18 767)))
(assert (= "}" (str.at var42 375)))
(assert (= "a" (str.at var26 862)))
(assert (= "O" (str.at var55 859)))
(assert (= "/" (str.at var47 831)))
(assert (= "H" (str.at var20 68)))
(assert (= "\\" (str.at var31 613)))
(assert (= "Q" (str.at var45 605)))
(assert (= "Z" (str.at var48 275)))
(assert (= "Z" (str.at var58 513)))
(assert (= "S" (str.at var10 362)))
(assert (= "u" (str.at var11 449)))
(assert (= "n" (str.at var52 478)))
(assert (= "_" (str.at var7 555)))
(assert (= "&" (str.at var9 136)))
(assert (= "d" (str.at var51 313)))
(assert (= "B" (str.at var52 709)))
(assert (= ">" (str.at var20 521)))
(assert (= "B" (str.at var17 723)))
(assert (= "R" (str.at var23 379)))
(assert (= "g" (str.at var8 110)))
(assert (= "`" (str.at var45 564)))
(assert (= "r" (str.at var59 581)))
(assert (= "L" (str.at var37 80)))
(assert (= "g" (str.at var56 28)))
(assert (= "," (str.at var51 618)))
(assert (= "!" (str.at var3 863)))
(assert (= "{" (str.at var50 2)))
(assert (= "F" (str.at var35 488)))
(assert (= "=" (str.at var59 961)))
(assert (= "E" (str.at var55 27)))
(assert (= "." (str.at var15 664)))
(assert (= "5" (str.at var37 459)))
(assert (= "l" (str.at var1 529)))
(assert (= "v" (str.at var40 891)))
(assert (= "(" (str.at var26 779)))
(assert (= "G" (str.at var38 760)))
(assert (= ">" (str.at var16 91)))
(assert (= "X" (str.at var57 253)))
(assert (= "z" (str.at var10 935)))
(assert (= "r" (str.at var11 647)))
(assert (= "K" (str.at var19 207)))
(assert (= "T" (str.at var18 186)))
(assert (= "c" (str.at var22 50)))
(assert (= "o" (str.at var35 319)))
(assert (= "?" (str.at var1 462)))
(assert (= "H" (str.at var45 432)))
(assert (= "8" (str.at var55 287)))
(assert (= "V" (str.at var7 717)))
(assert (= "Q" (str.at var58 241)))
(assert (= "y" (str.at var51 819)))
(assert (= "l" (str.at var24 637)))
(assert (= "`" (str.at var41 164)))
(assert (= "7" (str.at var54 367)))
(assert (= "0" (str.at var7 139)))
(assert (= "x" (str.at var12 824)))
(assert (= "b" (str.at var48 104)))
(assert (= "W" (str.at var12 203)))
(assert (= "J" (str.at var58 7)))
(assert (= "9" (str.at var34 320)))
(assert (= "O" (str.at var53 420)))
(assert (= "b" (str.at var59 239)))
(assert (= "," (str.at var47 257)))
(assert (= "<" (str.at var47 487)))
(assert (= "d" (str.at var42 745)))
(assert (= "w" (str.at var42 919)))
(assert (= "N" (str.at var34 614)))
(assert (= "3" (str.at var4 493)))
(assert (= "V" (str.at var11 623)))
(assert (= "O" (str.at var17 94)))
(assert (= "s" (str.at var16 5)))
(assert (= "p" (str.at var56 211)))
(assert (= "-" (str.at var18 430)))
(assert (= "L" (str.at var11 850)))
(assert (= "H" (str.at var46 721)))
(assert (= "B" (str.at var60 683)))
(assert (= "m" (str.at var31 586)))
(assert (= "d" (str.at var45 391)))
(assert (= "i" (str.at var39 799)))
(assert (= "%" (str.at var55 956)))
(assert (= "." (str.at var17 473)))
(assert (= "y" (str.at var16 720)))
(assert (= "t" (str.at var20 744)))
(assert (= "i" (str.at var36 922)))
(assert (= "e" (str.at var19 798)))
(assert (= "\\" (str.at var6 97)))
(assert (= "`" (str.at var6 261)))
(assert (= "x" (str.at var57 88)))
(assert (= "J" (str.at var43 256)))
(assert (= "9" (str.at var27 998)))
(assert (= "b" (str.at var46 246)))
(assert (= "=" (str.at var55 611)))
(assert (= "8" (str.at var19 726)))
(assert (= "j" (str.at var49 120)))
(assert (= "R" (str.at var8 340)))
(assert (= "[" (str.at var30 291)))
(assert (= "]" (str.at var25 723)))
(assert (= "J" (str.at var3 296)))
(assert (= "l" (str.at var16 233)))
(assert (= "_" (str.at var5 877)))
(assert (= ">" (str.at var11 162)))
(assert (= "S" (str.at var1 914)))
(assert (= "'" (str.at var59 673)))
(assert (= "D" (str.at var22 710)))
(assert (= "t" (str.at var49 23)))
(assert (= "=" (str.at var50 787)))
(assert (= """" (str.at var8 952)))
(assert (= "]" (str.at var35 428)))
(assert (= "/" (str.at var30 991)))
(assert (= "?" (str.at var21 903)))
(assert (= "D" (str.at var35 652)))
(assert (= "s" (str.at var47 216)))
(assert (= "t" (str.at var22 173)))
(assert (= "-" (str.at var37 284)))
(assert (= "G" (str.at var18 874)))
(assert (= "v" (str.at var40 518)))
(assert (= "<" (str.at var41 14)))
(assert (= "`" (str.at var6 51)))
(assert (= "Q" (str.at var10 680)))
(assert (= "C" (str.at var39 426)))
(assert (= "S" (str.at var54 577)))
(assert (= "=" (str.at var11 79)))
(assert (= "v" (str.at var14 894)))
(assert (= "Z" (str.at var47 167)))
(assert (= "V" (str.at var4 931)))
(assert (= "^" (str.at var15 69)))
(assert (= "r" (str.at var50 234)))
(assert (= "<" (str.at var1 961)))
(assert (= "]" (str.at var57 380)))
(assert (= "K" (str.at var16 866)))
(assert (= "Q" (str.at var36 87)))
(assert (= "k" (str.at var45 427)))
(assert (= "u" (str.at var0 879)))
(assert (= "h" (str.at var12 991)))
(assert (= "^" (str.at var45 1000)))
(assert (= "'" (str.at var10 59)))
(assert (= "e" (str.at var18 261)))
(assert (= "t" (str.at var57 180)))
(assert (= "e" (str.at var26 550)))
(assert (= "M" (str.at var2 703)))
(assert (= "[" (str.at var5 106)))
(assert (= "=" (str.at var14 186)))
(assert (= "Z" (str.at var45 651)))
(assert (= "C" (str.at var52 453)))
(assert (= "v" (str.at var7 334)))
(assert (= "%" (str.at var7 205)))
(assert (= "]" (str.at var55 511)))
(assert (= "<" (str.at var40 403)))
(assert (= "N" (str.at var5 94)))
(assert (= "q" (str.at var53 77)))
(assert (= "s" (str.at var4 769)))
(assert (= "l" (str.at var33 214)))
(assert (= "A" (str.at var14 870)))
(assert (= "$" (str.at var34 83)))
(assert (= "#" (str.at var15 670)))
(assert (= "," (str.at var32 467)))
(assert (= "i" (str.at var50 300)))
(assert (= "M" (str.at var6 544)))
(assert (= "x" (str.at var12 476)))
(assert (= "l" (str.at var15 176)))
(assert (= "k" (str.at var39 1)))
(assert (= "[" (str.at var6 432)))
(assert (= "N" (str.at var18 132)))
(assert (= "u" (str.at var2 870)))
(assert (= "z" (str.at var59 390)))
(assert (= "s" (str.at var42 239)))
(assert (= "`" (str.at var40 742)))
(assert (= "+" (str.at var22 36)))
(assert (= "Y" (str.at var1 222)))
(assert (= "8" (str.at var18 106)))
(assert (= "o" (str.at var5 97)))
(assert (= "o" (str.at var26 892)))
(assert (= "2" (str.at var34 743)))
(assert (= "@" (str.at var14 359)))
(assert (= "_" (str.at var53 200)))
(assert (= "f" (str.at var38 399)))
(assert (= "#" (str.at var53 54)))
(assert (= "u" (str.at var2 115)))
(assert (= "," (str.at var9 904)))
(assert (= "3" (str.at var29 870)))
(assert (= "\\" (str.at var37 949)))
(assert (= "b" (str.at var39 112)))
(assert (= "9" (str.at var4 806)))
(assert (= "+" (str.at var50 708)))
(assert (= "T" (str.at var45 415)))
(assert (= "i" (str.at var25 710)))
(assert (= "-" (str.at var1 498)))
(assert (= "s" (str.at var10 816)))
(assert (= "9" (str.at var60 593)))
(assert (= "Z" (str.at var59 249)))
(assert (= "," (str.at var1 513)))
(assert (= "y" (str.at var35 677)))
(assert (= "v" (str.at var22 851)))
(assert (= "W" (str.at var37 957)))
(assert (= "." (str.at var28 673)))
(assert (= """" (str.at var47 283)))
(assert (= "R" (str.at var18 172)))
(assert (= "b" (str.at var6 917)))
(assert (= "u" (str.at var53 236)))
(assert (= "h" (str.at var28 278)))
(assert (= "*" (str.at var58 665)))
(assert (= "Z" (str.at var15 402)))
(assert (= "R" (str.at var28 694)))
(assert (= "'" (str.at var4 993)))
(assert (= "H" (str.at var54 611)))
(assert (= "7" (str.at var7 417)))
(assert (= "_" (str.at var47 475)))
(assert (= "H" (str.at var24 55)))
(assert (= """" (str.at var17 815)))
(assert (= "`" (str.at var60 142)))
(assert (= "G" (str.at var31 684)))
(assert (= "!" (str.at var35 50)))
(assert (= "=" (str.at var16 603)))
(assert (= "u" (str.at var24 778)))
(assert (= "P" (str.at var10 528)))
(assert (= "B" (str.at var16 169)))
(assert (= "R" (str.at var46 199)))
(assert (= "." (str.at var41 694)))
(assert (= "6" (str.at var43 374)))
(assert (= "{" (str.at var29 16)))
(assert (= "?" (str.at var50 17)))
(assert (= "V" (str.at var39 149)))
(assert (= "\\" (str.at var1 282)))
(assert (= "A" (str.at var21 301)))
(assert (= "^" (str.at var20 791)))
(assert (= "?" (str.at var31 920)))
(assert (= "y" (str.at var55 834)))
(assert (= "*" (str.at var1 467)))
(assert (= "J" (str.at var50 56)))
(assert (= "Z" (str.at var46 722)))
(assert (= "B" (str.at var28 138)))
(assert (= "^" (str.at var17 638)))
(assert (= "J" (str.at var28 185)))
(assert (= "." (str.at var8 966)))
(assert (= "." (str.at var31 183)))
(assert (= "x" (str.at var59 240)))
(assert (= "+" (str.at var59 294)))
(assert (= "_" (str.at var15 361)))
(assert (= "i" (str.at var55 185)))
(assert (= "z" (str.at var47 427)))
(assert (= "T" (str.at var36 156)))
(assert (= "d" (str.at var33 361)))
(assert (= "K" (str.at var6 994)))
(assert (= "H" (str.at var25 694)))
(assert (= "{" (str.at var56 658)))
(assert (= "w" (str.at var22 650)))
(assert (= "'" (str.at var49 991)))
(assert (= """" (str.at var4 98)))
(assert (= "m" (str.at var52 659)))
(assert (= "'" (str.at var4 17)))
(assert (= "V" (str.at var55 921)))
(assert (= "%" (str.at var7 57)))
(assert (= "." (str.at var15 924)))
(assert (= "e" (str.at var13 778)))
(assert (= "+" (str.at var29 902)))
(assert (= ";" (str.at var22 293)))
(assert (= "m" (str.at var9 160)))
(assert (= "f" (str.at var55 564)))
(assert (= "u" (str.at var52 360)))
(assert (= "\\" (str.at var25 102)))
(assert (= "+" (str.at var56 903)))
(assert (= "u" (str.at var28 240)))
(assert (= "+" (str.at var11 634)))
(assert (= "[" (str.at var21 696)))
(assert (= "z" (str.at var19 715)))
(assert (= "7" (str.at var48 478)))
(assert (= "O" (str.at var32 925)))
(assert (= "y" (str.at var51 613)))
(assert (= "A" (str.at var3 725)))
(assert (= "J" (str.at var52 763)))
(assert (= "T" (str.at var9 9)))
(assert (= "]" (str.at var9 707)))
(assert (= "q" (str.at var15 910)))
(assert (= "H" (str.at var4 399)))
(assert (= "m" (str.at var53 230)))
(assert (= "l" (str.at var36 260)))
(assert (= "0" (str.at var0 183)))
(assert (= "s" (str.at var37 719)))
(assert (= "8" (str.at var15 818)))
(assert (= "S" (str.at var22 551)))
(assert (= "." (str.at var43 5)))
(assert (= "k" (str.at var28 854)))
(assert (= "j" (str.at var54 940)))
(assert (= "<" (str.at var0 880)))
(assert (= "P" (str.at var59 224)))
(assert (= "V" (str.at var47 671)))
(assert (= "{" (str.at var44 36)))
(assert (= "\\" (str.at var3 843)))
(assert (= "o" (str.at var1 770)))
(assert (= "p" (str.at var5 143)))
(assert (= "G" (str.at var46 480)))
(assert (= ";" (str.at var8 578)))
(assert (= "J" (str.at var5 440)))
(assert (= "L" (str.at var19 67)))
(assert (= "a" (str.at var2 994)))
(assert (= "a" (str.at var34 52)))
(assert (= "9" (str.at var5 29)))
(assert (= "O" (str.at var38 179)))
(assert (= "-" (str.at var13 328)))
(assert (= "J" (str.at var46 650)))
(assert (= "H" (str.at var12 305)))
(assert (= ")" (str.at var60 730)))
(assert (= "L" (str.at var22 747)))
(assert (= ">" (str.at var60 172)))
(assert (= "]" (str.at var37 965)))
(assert (= "}" (str.at var17 769)))
(assert (= "e" (str.at var59 649)))
(assert (= "+" (str.at var17 275)))
(assert (= """" (str.at var34 351)))
(assert (= "M" (str.at var60 658)))
(assert (= "7" (str.at var16 931)))
(assert (= "R" (str.at var43 835)))
(assert (= "1" (str.at var0 326)))
(assert (= "v" (str.at var25 925)))
(assert (= "&" (str.at var58 247)))
(assert (= "3" (str.at var34 323)))
(assert (= "K" (str.at var56 243)))
(assert (= "-" (str.at var9 811)))
(assert (= "$" (str.at var15 600)))
(assert (= "'" (str.at var30 833)))
(assert (= "<" (str.at var21 595)))
(assert (= "l" (str.at var45 886)))
(assert (= "J" (str.at var11 930)))
(assert (= "G" (str.at var44 252)))
(assert (= "o" (str.at var55 709)))
(assert (= "r" (str.at var43 596)))
(assert (= "F" (str.at var47 404)))
(assert (= "C" (str.at var28 302)))
(assert (= "}" (str.at var11 10)))
(assert (= "T" (str.at var8 37)))
(assert (= "1" (str.at var37 184)))
(assert (= "&" (str.at var50 33)))
(assert (= "Z" (str.at var58 211)))
(assert (= "B" (str.at var52 58)))
(assert (= "$" (str.at var31 858)))
(assert (= "+" (str.at var18 639)))
(assert (= "G" (str.at var25 891)))
(assert (= "3" (str.at var8 180)))
(assert (= "4" (str.at var18 484)))
(assert (= "e" (str.at var47 943)))
(assert (= "g" (str.at var35 586)))
(assert (= "k" (str.at var11 323)))
(assert (= "2" (str.at var32 124)))
(assert (= "y" (str.at var12 571)))
(assert (= "M" (str.at var19 362)))
(assert (= "7" (str.at var27 487)))
(assert (= "," (str.at var47 844)))
(assert (= "w" (str.at var9 444)))
(assert (= "F" (str.at var2 613)))
(assert (= "w" (str.at var22 497)))
(assert (= "U" (str.at var38 540)))
(assert (= "I" (str.at var41 941)))
(assert (= "z" (str.at var21 372)))
(assert (= "t" (str.at var11 578)))
(assert (= "0" (str.at var35 740)))
(assert (= "u" (str.at var9 937)))
(assert (= "\\" (str.at var51 617)))
(check-sat)